5 5
0 82 2 37 3 52 4 12 1 38
1 98 3 68 2 16 0 61 4 24
1 78 2 17 0 95 3 4 4 50
4 98 0 3 2 8 1 12 3 35
1 66 4 53 2 93 3 87 0 33
-1
0 3 5
0 1 2 5
0 4 5
0 1 3 5
0 3 5
-2
227 267
116 220 408
201 290
126 121 211
280 398

432 8
0 12 16 8 24
10 20 5 4 18
11 1 22 7 17
2 13 6 23 19
15 21 3 14 9
